\* NBA *\
Maximize
OBJ: 57.53 x1 + 16.72 x10 + 17.85 x100 + 1.24 x103 + 43.64 x104 + 39.79 x105
 + 25.35 x106 + 25.32 x107 + 21.95 x109 + 18.26 x11 + 25.53 x110 + 22.84 x111
 + 18.15 x112 + 18.35 x113 + 14.71 x115 + 7.81 x116 + 16.48 x117 + 16.91 x118
 + 17.26 x12 + 15.08 x120 + 12.62 x121 + 11.92 x122 + 2.04 x123 + 0.61 x124
 + 4.66 x127 + 4.74 x128 + 1.58 x129 + 15.62 x13 + 12.41 x130 + 8.12 x131
 + 3.02 x132 + 15.69 x133 + 5.13 x135 + 4.43 x136 + 7.25 x139 + 8 x14
 + 50.27 x140 + 42.41 x141 + 40.41 x142 + 38 x143 + 31.31 x144 + 32.13 x146
 + 31.15 x147 + 26.24 x148 + 31.15 x149 + 7.63 x15 + 29.28 x150 + 32.32 x151
 + 24.15 x152 + 23.16 x153 + 28.2 x154 + 26.23 x155 + 25.46 x156 + 22.65 x157
 + 21.43 x158 + 1.64 x16 + 11.36 x161 + 18.38 x162 + 15.11 x163 + 14.9 x164
 + 11.64 x165 + 14.64 x166 + 13.37 x167 + 9.53 x168 + 5.21 x17 + 1.52 x172
 + 9.88 x173 + 3.98 x175 + 14.3 x176 + 2.1 x177 + 7.52 x179 + 52.63 x18
 + 12.46 x180 + 10.77 x181 + 5.88 x182 + 9.75 x183 + 2.75 x186 + 16.63 x187
 + 11.37 x188 + 37.32 x19 + 31.88 x191 + 33.25 x193 + 25.73 x195 + 20.19 x196
 + 23.03 x197 + 24.23 x199 + 43.95 x2 + 21.27 x200 + 14.63 x201 + 10.26 x203
 + 16.57 x204 + 0.77 x206 + 4.26 x207 + 1.25 x208 + 7.07 x209 + 24.45 x21
 + 10.68 x211 + 1.62 x213 + 8.5 x214 + 3.87 x218 + 20.04 x22 + 5.6 x221
 + 2.76 x224 + 13.85 x225 + 4.14 x228 + 2.29 x229 + 19.74 x23 + 45.55 x233
 + 34.1 x234 + 39.59 x235 + 19.3 x237 + 26.64 x239 + 21.52 x24 + 21.39 x240
 + 23.18 x241 + 15.42 x242 + 17.05 x244 + 13.51 x245 + 9.88 x246 + 14.31 x248
 + 15.33 x249 + 16.44 x25 + 6.66 x250 + 6.2 x251 + 12.13 x252 + 38.03 x253
 + 35.71 x254 + 36.18 x255 + 35.11 x257 + 29.1 x258 + 18.98 x26 + 28.73 x260
 + 30.89 x261 + 24.73 x262 + 18.02 x263 + 22.1 x264 + 22.88 x265 + 22.45 x266
 + 16.03 x267 + 21.44 x269 + 17.06 x27 + 12.94 x272 + 16.71 x273 + 15.88 x274
 + 12.23 x275 + 14.3 x276 + 8.22 x277 + 10.99 x278 + 11.49 x28 + 15.41 x280
 + 2.17 x284 + 14.14 x286 + 3.47 x287 + 10.93 x288 + 5.52 x289 + 4.29 x29
 + 6.16 x290 + 5.39 x291 + 6.41 x292 + 5.63 x293 + 14.17 x295 + 1.5 x297
 + 2.95 x298 + 5.86 x299 + 37.95 x3 + 11.51 x30 + 11.38 x31 + 51.19 x32
 + 47.4 x33 + 48.77 x34 + 44.21 x35 + 47.47 x36 + 38.17 x37 + 36.46 x38
 + 36.31 x39 + 32.65 x4 + 38.05 x41 + 31.24 x42 + 35.09 x44 + 23.78 x45
 + 29.1 x46 + 27.43 x48 + 29.51 x5 + 24.24 x50 + 12.08 x51 + 25.82 x52
 + 25.17 x53 + 21.42 x54 + 24.75 x55 + 16.75 x56 + 18.7 x57 + 2.99 x58
 + 2.33 x59 + 28.01 x6 + 12.46 x60 + 15.85 x61 + 9.4 x62 + 9.4 x63 + 7.08 x64
 + 12.86 x65 + 15.5 x66 + 6.45 x68 + 9.04 x69 + 25.11 x7 + 8.44 x70
 + 10.97 x72 + 0.23 x73 + 2.28 x75 + 4.32 x77 + 2.2 x78 + 6.32 x79 + 25.05 x8
 + 5.79 x83 + 52.55 x86 + 51.05 x87 + 39.16 x88 + 31.16 x89 + 14.84 x9
 + 33.93 x90 + 33.26 x92 + 30.07 x93 + 29.11 x94 + 25.26 x95 + 18.52 x96
 + 16.22 x97 + 19.46 x98 + 17.81 x99
Subject To
_C1: 11500 x0 + 10300 x1 + 4200 x10 + 3400 x100 + 3000 x101 + 3000 x102
 + 3000 x103 + 8700 x104 + 8300 x105 + 5500 x106 + 5000 x107 + 4900 x108
 + 4700 x109 + 4000 x11 + 4400 x110 + 4400 x111 + 3900 x112 + 3900 x113
 + 3800 x114 + 3800 x115 + 3700 x116 + 3600 x117 + 3500 x118 + 3400 x119
 + 3700 x12 + 3300 x120 + 3200 x121 + 3000 x122 + 3000 x123 + 3000 x124
 + 3000 x125 + 3000 x126 + 3000 x127 + 3000 x128 + 3000 x129 + 3700 x13
 + 3000 x130 + 3000 x131 + 3000 x132 + 3000 x133 + 3000 x134 + 3000 x135
 + 3000 x136 + 3000 x137 + 3000 x138 + 3000 x139 + 3000 x14 + 8600 x140
 + 7900 x141 + 7000 x142 + 6400 x143 + 6300 x144 + 5900 x145 + 5800 x146
 + 5800 x147 + 5400 x148 + 5400 x149 + 3000 x15 + 5300 x150 + 5200 x151
 + 4900 x152 + 4800 x153 + 4600 x154 + 4400 x155 + 4400 x156 + 4200 x157
 + 4100 x158 + 4000 x159 + 3000 x16 + 3800 x160 + 3600 x161 + 3600 x162
 + 3500 x163 + 3300 x164 + 3300 x165 + 3300 x166 + 3100 x167 + 3000 x168
 + 3000 x169 + 3000 x17 + 3000 x170 + 3000 x171 + 3000 x172 + 3000 x173
 + 3000 x174 + 3000 x175 + 3000 x176 + 3000 x177 + 3000 x178 + 3000 x179
 + 11300 x18 + 3000 x180 + 3000 x181 + 3000 x182 + 3000 x183 + 3000 x184
 + 3000 x185 + 3000 x186 + 3000 x187 + 3000 x188 + 3000 x189 + 6900 x19
 + 8500 x190 + 5900 x191 + 5800 x192 + 5700 x193 + 5000 x194 + 4800 x195
 + 4700 x196 + 4600 x197 + 4500 x198 + 4300 x199 + 7800 x2 + 6800 x20
 + 4000 x200 + 4000 x201 + 3500 x202 + 3500 x203 + 3200 x204 + 3000 x205
 + 3000 x206 + 3000 x207 + 3000 x208 + 3000 x209 + 4700 x21 + 3000 x210
 + 3000 x211 + 3000 x212 + 3000 x213 + 3000 x214 + 3000 x215 + 3000 x216
 + 3000 x217 + 3000 x218 + 3000 x219 + 4400 x22 + 3000 x220 + 3000 x221
 + 3000 x222 + 3000 x223 + 3000 x224 + 3000 x225 + 3000 x226 + 3000 x227
 + 3000 x228 + 3000 x229 + 4400 x23 + 3000 x230 + 3000 x231 + 3000 x232
 + 8200 x233 + 6700 x234 + 6600 x235 + 6000 x236 + 4900 x237 + 4800 x238
 + 4800 x239 + 4000 x24 + 4000 x240 + 4000 x241 + 3800 x242 + 3600 x243
 + 3600 x244 + 3300 x245 + 3200 x246 + 3200 x247 + 3000 x248 + 3000 x249
 + 3500 x25 + 3000 x250 + 3000 x251 + 3000 x252 + 6900 x253 + 6500 x254
 + 6400 x255 + 5600 x256 + 5600 x257 + 5400 x258 + 5400 x259 + 3500 x26
 + 5300 x260 + 5300 x261 + 4600 x262 + 4500 x263 + 4400 x264 + 4400 x265
 + 4200 x266 + 4100 x267 + 4000 x268 + 3900 x269 + 3200 x27 + 3700 x270
 + 3700 x271 + 3600 x272 + 3600 x273 + 3600 x274 + 3600 x275 + 3500 x276
 + 3200 x277 + 3000 x278 + 3000 x279 + 3000 x28 + 3000 x280 + 3000 x281
 + 3000 x282 + 3000 x283 + 3000 x284 + 3000 x285 + 3000 x286 + 3000 x287
 + 3000 x288 + 3000 x289 + 3000 x29 + 3000 x290 + 3000 x291 + 3000 x292
 + 3000 x293 + 3000 x294 + 3000 x295 + 3000 x296 + 3000 x297 + 3000 x298
 + 3000 x299 + 7700 x3 + 3000 x30 + 3000 x31 + 9900 x32 + 9000 x33 + 8800 x34
 + 8400 x35 + 8400 x36 + 7500 x37 + 7300 x38 + 7200 x39 + 6200 x4 + 6900 x40
 + 6500 x41 + 6000 x42 + 6000 x43 + 5900 x44 + 5700 x45 + 5600 x46 + 5500 x47
 + 5300 x48 + 5000 x49 + 6000 x5 + 4900 x50 + 4800 x51 + 4800 x52 + 4800 x53
 + 4600 x54 + 4600 x55 + 4000 x56 + 3700 x57 + 3600 x58 + 3500 x59 + 5400 x6
 + 3400 x60 + 3400 x61 + 3300 x62 + 3300 x63 + 3200 x64 + 3200 x65 + 3200 x66
 + 3000 x67 + 3000 x68 + 3000 x69 + 5100 x7 + 3000 x70 + 3000 x71 + 3000 x72
 + 3000 x73 + 3000 x74 + 3000 x75 + 3000 x76 + 3000 x77 + 3000 x78 + 3000 x79
 + 5000 x8 + 3000 x80 + 3000 x81 + 3000 x82 + 3000 x83 + 3000 x84 + 3000 x85
 + 9400 x86 + 9300 x87 + 8000 x88 + 6500 x89 + 4600 x9 + 6400 x90 + 6400 x91
 + 6200 x92 + 6100 x93 + 5400 x94 + 5200 x95 + 4000 x96 + 4000 x97 + 3900 x98
 + 3700 x99 <= 50000
_C10: x0 + x1 + x10 + x100 + x101 + x102 + x103 + x11 + x12 + x13 + x14 + x15
 + x16 + x17 + x190 + x191 + x192 + x193 + x194 + x195 + x196 + x197 + x198
 + x199 + x2 + x200 + x201 + x202 + x203 + x204 + x205 + x206 + x207 + x208
 + x209 + x210 + x211 + x212 + x213 + x214 + x215 + x216 + x217 + x218 + x219
 + x220 + x221 + x222 + x223 + x224 + x225 + x226 + x227 + x228 + x229 + x230
 + x231 + x232 + x3 + x4 + x5 + x6 + x7 + x8 + x86 + x87 + x88 + x89 + x9
 + x90 + x91 + x92 + x93 + x94 + x95 + x96 + x97 + x98 + x99 <= 3
_C100: 4 x110 <= 10
_C101: 3 x142 <= 10
_C102: 3 x154 <= 10
_C103: 2 x239 <= 10
_C104: 7 x257 <= 10
_C105: 4 x261 <= 10
_C106: 4 x34 <= 10
_C107: 4 x86 <= 10
_C108: x110 + x142 + x154 + x239 + x257 + x261 + x34 + x86 <= 3
_C109: 4 x140 <= 10
_C11: x0 + x1 + x10 + x100 + x101 + x102 + x103 + x11 + x12 + x13 + x14 + x15
 + x16 + x17 + x190 + x191 + x192 + x193 + x194 + x195 + x196 + x197 + x198
 + x199 + x2 + x200 + x201 + x202 + x203 + x204 + x205 + x206 + x207 + x208
 + x209 + x210 + x211 + x212 + x213 + x214 + x215 + x216 + x217 + x218 + x219
 + x220 + x221 + x222 + x223 + x224 + x225 + x226 + x227 + x228 + x229 + x230
 + x231 + x232 + x3 + x4 + x5 + x6 + x7 + x8 + x86 + x87 + x88 + x89 + x9
 + x90 + x91 + x92 + x93 + x94 + x95 + x96 + x97 + x98 + x99 >= 1
_C110: 2 x149 <= 10
_C111: 2 x191 <= 10
_C112: 5 x199 <= 10
_C113: 4 x235 <= 10
_C114: 3 x239 <= 10
_C115: 8 x257 <= 10
_C116: 5 x34 <= 10
_C117: x140 + x149 + x191 + x199 + x235 + x239 + x257 + x34 <= 3
_C118: 2 x100 <= 10
_C119: 4 x142 <= 10
_C12: x0 + x1 + x10 + x11 + x12 + x13 + x14 + x140 + x141 + x142 + x143 + x144
 + x145 + x146 + x147 + x148 + x149 + x15 + x150 + x151 + x152 + x153 + x154
 + x155 + x156 + x157 + x158 + x159 + x16 + x160 + x161 + x162 + x163 + x164
 + x165 + x166 + x167 + x168 + x169 + x17 + x170 + x171 + x172 + x173 + x174
 + x175 + x176 + x177 + x178 + x179 + x180 + x181 + x182 + x183 + x184 + x185
 + x186 + x187 + x188 + x189 + x2 + x3 + x4 + x5 + x6 + x7 + x8 + x9 <= 2
_C120: 3 x143 <= 10
_C121: 2 x204 <= 10
_C122: 5 x235 <= 10
_C123: 9 x257 <= 10
_C124: 6 x36 <= 10
_C125: 5 x86 <= 10
_C126: x100 + x142 + x143 + x204 + x235 + x257 + x36 + x86 <= 3
_C13: x0 + x1 + x10 + x11 + x12 + x13 + x14 + x140 + x141 + x142 + x143 + x144
 + x145 + x146 + x147 + x148 + x149 + x15 + x150 + x151 + x152 + x153 + x154
 + x155 + x156 + x157 + x158 + x159 + x16 + x160 + x161 + x162 + x163 + x164
 + x165 + x166 + x167 + x168 + x169 + x17 + x170 + x171 + x172 + x173 + x174
 + x175 + x176 + x177 + x178 + x179 + x180 + x181 + x182 + x183 + x184 + x185
 + x186 + x187 + x188 + x189 + x2 + x3 + x4 + x5 + x6 + x7 + x8 + x9 >= 1
_C14: - P0 + x110 + x132 + x15 + x158 + x180 + x199 + x200 + x220 + x235
 + x244 + x273 + x37 + x62 + x75 + x76 >= 0
_C15: - P0 + 0 x110 + 0 x132 + 0 x15 + 0 x158 + 0 x180 + 0 x199 + 0 x200
 + 0 x220 + 0 x235 + 0 x244 + 0 x273 + 0 x37 + 0 x62 + 0 x75 + 0 x76 <= 0
_C16: - P1 + x10 + x104 + x111 + x12 + x142 + x182 + x192 + x20 + x222 + x237
 + x259 + x294 + x50 + x63 + x78 >= 0
_C17: - P1 + 0 x10 + 0 x104 + 0 x111 + 0 x12 + 0 x142 + 0 x182 + 0 x192
 + 0 x20 + 0 x222 + 0 x237 + 0 x259 + 0 x294 + 0 x50 + 0 x63 + 0 x78 <= 0
_C18: - P2 + x119 + x164 + x172 + x173 + x174 + x211 + x213 + x215 + x249
 + x255 + x28 + x3 + x35 + x64 + x87 >= 0
_C19: - P2 + 0 x119 + 0 x164 + 0 x172 + 0 x173 + 0 x174 + 0 x211 + 0 x213
 + 0 x215 + 0 x249 + 0 x255 + 0 x28 + 0 x3 + 0 x35 + 0 x64 + 0 x87 <= 0
_C2: x0 + x1 + x10 + x100 + x101 + x102 + x103 + x104 + x105 + x106 + x107
 + x108 + x109 + x11 + x110 + x111 + x112 + x113 + x114 + x115 + x116 + x117
 + x118 + x119 + x12 + x120 + x121 + x122 + x123 + x124 + x125 + x126 + x127
 + x128 + x129 + x13 + x130 + x131 + x132 + x133 + x134 + x135 + x136 + x137
 + x138 + x139 + x14 + x140 + x141 + x142 + x143 + x144 + x145 + x146 + x147
 + x148 + x149 + x15 + x150 + x151 + x152 + x153 + x154 + x155 + x156 + x157
 + x158 + x159 + x16 + x160 + x161 + x162 + x163 + x164 + x165 + x166 + x167
 + x168 + x169 + x17 + x170 + x171 + x172 + x173 + x174 + x175 + x176 + x177
 + x178 + x179 + x18 + x180 + x181 + x182 + x183 + x184 + x185 + x186 + x187
 + x188 + x189 + x19 + x190 + x191 + x192 + x193 + x194 + x195 + x196 + x197
 + x198 + x199 + x2 + x20 + x200 + x201 + x202 + x203 + x204 + x205 + x206
 + x207 + x208 + x209 + x21 + x210 + x211 + x212 + x213 + x214 + x215 + x216
 + x217 + x218 + x219 + x22 + x220 + x221 + x222 + x223 + x224 + x225 + x226
 + x227 + x228 + x229 + x23 + x230 + x231 + x232 + x233 + x234 + x235 + x236
 + x237 + x238 + x239 + x24 + x240 + x241 + x242 + x243 + x244 + x245 + x246
 + x247 + x248 + x249 + x25 + x250 + x251 + x252 + x253 + x254 + x255 + x256
 + x257 + x258 + x259 + x26 + x260 + x261 + x262 + x263 + x264 + x265 + x266
 + x267 + x268 + x269 + x27 + x270 + x271 + x272 + x273 + x274 + x275 + x276
 + x277 + x278 + x279 + x28 + x280 + x281 + x282 + x283 + x284 + x285 + x286
 + x287 + x288 + x289 + x29 + x290 + x291 + x292 + x293 + x294 + x295 + x296
 + x297 + x298 + x299 + x3 + x30 + x31 + x32 + x33 + x34 + x35 + x36 + x37
 + x38 + x39 + x4 + x40 + x41 + x42 + x43 + x44 + x45 + x46 + x47 + x48 + x49
 + x5 + x50 + x51 + x52 + x53 + x54 + x55 + x56 + x57 + x58 + x59 + x6 + x60
 + x61 + x62 + x63 + x64 + x65 + x66 + x67 + x68 + x69 + x7 + x70 + x71 + x72
 + x73 + x74 + x75 + x76 + x77 + x78 + x79 + x8 + x80 + x81 + x82 + x83 + x84
 + x85 + x86 + x87 + x88 + x89 + x9 + x90 + x91 + x92 + x93 + x94 + x95 + x96
 + x97 + x98 + x99 = 8
_C20: - P3 + x100 + x125 + x155 + x156 + x170 + x209 + x210 + x24 + x245 + x27
 + x281 + x284 + x32 + x68 + x90 >= 0
_C21: - P3 + 0 x100 + 0 x125 + 0 x155 + 0 x156 + 0 x170 + 0 x209 + 0 x210
 + 0 x24 + 0 x245 + 0 x27 + 0 x281 + 0 x284 + 0 x32 + 0 x68 + 0 x90 <= 0
_C22: - P4 + x101 + x108 + x109 + x11 + x122 + x140 + x161 + x198 + x205
 + x206 + x238 + x256 + x269 + x38 + x46 >= 0
_C23: - P4 + 0 x101 + 0 x108 + 0 x109 + 0 x11 + 0 x122 + 0 x140 + 0 x161
 + 0 x198 + 0 x205 + 0 x206 + 0 x238 + 0 x256 + 0 x269 + 0 x38 + 0 x46 <= 0
_C24: - P5 + x0 + x102 + x115 + x137 + x138 + x187 + x188 + x197 + x23 + x231
 + x236 + x271 + x276 + x43 + x45 >= 0
_C25: - P5 + 0 x0 + 0 x102 + 0 x115 + 0 x137 + 0 x138 + 0 x187 + 0 x188
 + 0 x197 + 0 x23 + 0 x231 + 0 x236 + 0 x271 + 0 x276 + 0 x43 + 0 x45 <= 0
_C26: - P6 + x1 + x133 + x181 + x183 + x184 + x21 + x221 + x223 + x293 + x295
 + x296 + x30 + x60 + x89 + x97 >= 0
_C27: - P6 + 0 x1 + 0 x133 + 0 x181 + 0 x183 + 0 x184 + 0 x21 + 0 x221
 + 0 x223 + 0 x293 + 0 x295 + 0 x296 + 0 x30 + 0 x60 + 0 x89 + 0 x97 <= 0
_C28: - P7 + x131 + x152 + x179 + x2 + x202 + x25 + x251 + x272 + x290 + x291
 + x292 + x39 + x74 + x77 + x86 >= 0
_C29: - P7 + 0 x131 + 0 x152 + 0 x179 + 0 x2 + 0 x202 + 0 x25 + 0 x251
 + 0 x272 + 0 x290 + 0 x291 + 0 x292 + 0 x39 + 0 x74 + 0 x77 + 0 x86 <= 0
_C3: 3300 x18 - 1100 x19 - 1200 x20 - 3300 x21 - 3600 x22 - 3600 x23
 - 4000 x24 - 4500 x25 - 4500 x26 - 4800 x27 - 5000 x28 - 5000 x29 - 5000 x30
 - 5000 x31 + 1900 x32 + 1000 x33 + 800 x34 + 400 x35 + 400 x36 - 500 x37
 - 700 x38 - 800 x39 - 1100 x40 - 1500 x41 - 2000 x42 - 2000 x43 - 2100 x44
 - 2300 x45 - 2400 x46 - 2500 x47 - 2700 x48 - 3000 x49 - 3100 x50 - 3200 x51
 - 3200 x52 - 3200 x53 - 3400 x54 - 3400 x55 - 4000 x56 - 4300 x57 - 4400 x58
 - 4500 x59 - 4600 x60 - 4600 x61 - 4700 x62 - 4700 x63 - 4800 x64 - 4800 x65
 - 4800 x66 - 5000 x67 - 5000 x68 - 5000 x69 - 5000 x70 - 5000 x71 - 5000 x72
 - 5000 x73 - 5000 x74 - 5000 x75 - 5000 x76 - 5000 x77 - 5000 x78 - 5000 x79
 - 5000 x80 - 5000 x81 - 5000 x82 - 5000 x83 - 5000 x84 - 5000 x85 >= 0
_C30: - P8 + x117 + x118 + x139 + x143 + x160 + x17 + x193 + x232 + x241
 + x257 + x299 + x31 + x47 + x61 + x82 >= 0
_C31: - P8 + 0 x117 + 0 x118 + 0 x139 + 0 x143 + 0 x160 + 0 x17 + 0 x193
 + 0 x232 + 0 x241 + 0 x257 + 0 x299 + 0 x31 + 0 x47 + 0 x61 + 0 x82 <= 0
_C32: - P9 + x107 + x134 + x150 + x163 + x185 + x19 + x201 + x225 + x228
 + x229 + x239 + x242 + x36 + x80 + x81 >= 0
_C33: - P9 + 0 x107 + 0 x134 + 0 x150 + 0 x163 + 0 x185 + 0 x19 + 0 x201
 + 0 x225 + 0 x228 + 0 x229 + 0 x239 + 0 x242 + 0 x36 + 0 x80 + 0 x81 <= 0
_C34: - P10 + x121 + x13 + x135 + x136 + x144 + x16 + x189 + x190 + x230
 + x247 + x265 + x266 + x298 + x34 + x66 >= 0
_C35: - P10 + 0 x121 + 0 x13 + 0 x135 + 0 x136 + 0 x144 + 0 x16 + 0 x189
 + 0 x190 + 0 x230 + 0 x247 + 0 x265 + 0 x266 + 0 x298 + 0 x34 + 0 x66 <= 0
_C36: - P11 + x112 + x114 + x141 + x175 + x191 + x212 + x214 + x243 + x262
 + x264 + x270 + x40 + x54 + x6 + x65 + x70 >= 0
_C37: - P11 + 0 x112 + 0 x114 + 0 x141 + 0 x175 + 0 x191 + 0 x212 + 0 x214
 + 0 x243 + 0 x262 + 0 x264 + 0 x270 + 0 x40 + 0 x54 + 0 x6 + 0 x65 + 0 x70
 <= 0
_C38: - P12 + x127 + x128 + x145 + x153 + x216 + x217 + x260 + x286 + x287
 + x29 + x5 + x55 + x57 + x96 + x99 >= 0
_C39: - P12 + 0 x127 + 0 x128 + 0 x145 + 0 x153 + 0 x216 + 0 x217 + 0 x260
 + 0 x286 + 0 x287 + 0 x29 + 0 x5 + 0 x55 + 0 x57 + 0 x96 + 0 x99 <= 0
_C4: x18 + x19 + x20 + x21 + x22 + x23 + x24 + x25 + x26 + x27 + x28 + x29
 + x30 + x31 + x32 + x33 + x34 + x35 + x36 + x37 + x38 + x39 + x40 + x41 + x42
 + x43 + x44 + x45 + x46 + x47 + x48 + x49 + x50 + x51 + x52 + x53 + x54 + x55
 + x56 + x57 + x58 + x59 + x60 + x61 + x62 + x63 + x64 + x65 + x66 + x67 + x68
 + x69 + x70 + x71 + x72 + x73 + x74 + x75 + x76 + x77 + x78 + x79 + x80 + x81
 + x82 + x83 + x84 + x85 <= 3
_C40: - P13 + x130 + x159 + x162 + x177 + x194 + x246 + x261 + x263 + x288
 + x289 + x42 + x49 + x72 + x8 + x92 >= 0
_C41: - P13 + 0 x130 + 0 x159 + 0 x162 + 0 x177 + 0 x194 + 0 x246 + 0 x261
 + 0 x263 + 0 x288 + 0 x289 + 0 x42 + 0 x49 + 0 x72 + 0 x8 + 0 x92 <= 0
_C42: - P14 + x106 + x126 + x151 + x157 + x204 + x218 + x22 + x234 + x268
 + x285 + x48 + x51 + x71 + x9 + x91 >= 0
_C43: - P14 + 0 x106 + 0 x126 + 0 x151 + 0 x157 + 0 x204 + 0 x218 + 0 x22
 + 0 x234 + 0 x268 + 0 x285 + 0 x48 + 0 x51 + 0 x71 + 0 x9 + 0 x91 <= 0
_C44: - P15 + x120 + x123 + x124 + x154 + x168 + x207 + x233 + x254 + x278
 + x279 + x44 + x58 + x67 + x7 + x98 >= 0
_C45: - P15 + 0 x120 + 0 x123 + 0 x124 + 0 x154 + 0 x168 + 0 x207 + 0 x233
 + 0 x254 + 0 x278 + 0 x279 + 0 x44 + 0 x58 + 0 x67 + 0 x7 + 0 x98 <= 0
_C46: - P16 + x116 + x147 + x166 + x186 + x196 + x224 + x226 + x227 + x240
 + x26 + x267 + x297 + x41 + x79 + x88 >= 0
_C47: - P16 + 0 x116 + 0 x147 + 0 x166 + 0 x186 + 0 x196 + 0 x224 + 0 x226
 + 0 x227 + 0 x240 + 0 x26 + 0 x267 + 0 x297 + 0 x41 + 0 x79 + 0 x88 <= 0
_C48: - P17 + x103 + x105 + x149 + x167 + x203 + x252 + x274 + x275 + x277
 + x4 + x53 + x56 + x83 + x84 + x85 >= 0
_C49: - P17 + 0 x103 + 0 x105 + 0 x149 + 0 x167 + 0 x203 + 0 x252 + 0 x274
 + 0 x275 + 0 x277 + 0 x4 + 0 x53 + 0 x56 + 0 x83 + 0 x84 + 0 x85 <= 0
_C5: x18 + x19 + x20 + x21 + x22 + x23 + x24 + x25 + x26 + x27 + x28 + x29
 + x30 + x31 + x32 + x33 + x34 + x35 + x36 + x37 + x38 + x39 + x40 + x41 + x42
 + x43 + x44 + x45 + x46 + x47 + x48 + x49 + x50 + x51 + x52 + x53 + x54 + x55
 + x56 + x57 + x58 + x59 + x60 + x61 + x62 + x63 + x64 + x65 + x66 + x67 + x68
 + x69 + x70 + x71 + x72 + x73 + x74 + x75 + x76 + x77 + x78 + x79 + x80 + x81
 + x82 + x83 + x84 + x85 >= 1
_C50: - P18 + x14 + x146 + x169 + x171 + x208 + x248 + x253 + x280 + x282
 + x283 + x33 + x59 + x69 + x93 + x95 >= 0
_C51: - P18 + 0 x14 + 0 x146 + 0 x169 + 0 x171 + 0 x208 + 0 x248 + 0 x253
 + 0 x280 + 0 x282 + 0 x283 + 0 x33 + 0 x59 + 0 x69 + 0 x93 + 0 x95 <= 0
_C52: - P19 + x113 + x129 + x148 + x165 + x176 + x178 + x18 + x195 + x219
 + x250 + x258 + x52 + x73 + x94 >= 0
_C53: - P19 + 0 x113 + 0 x129 + 0 x148 + 0 x165 + 0 x176 + 0 x178 + 0 x18
 + 0 x195 + 0 x219 + 0 x250 + 0 x258 + 0 x52 + 0 x73 + 0 x94 <= 0
_C54: P0 + P1 + P10 + P11 + P12 + P13 + P14 + P15 + P16 + P17 + P18 + P19 + P2
 + P3 + P4 + P5 + P6 + P7 + P8 + P9 = 7
_C55: 2 x151 <= 10
_C56: 2 x155 <= 10
_C57: 2 x193 <= 10
_C58: 2 x235 <= 10
_C59: 2 x257 <= 10
_C6: x18 + x19 + x20 + x21 + x22 + x23 + x233 + x234 + x235 + x236 + x237
 + x238 + x239 + x24 + x240 + x241 + x242 + x243 + x244 + x245 + x246 + x247
 + x248 + x249 + x25 + x250 + x251 + x252 + x253 + x254 + x255 + x256 + x257
 + x258 + x259 + x26 + x260 + x261 + x262 + x263 + x264 + x265 + x266 + x267
 + x268 + x269 + x27 + x270 + x271 + x272 + x273 + x274 + x275 + x276 + x277
 + x278 + x279 + x28 + x280 + x281 + x282 + x283 + x284 + x285 + x286 + x287
 + x288 + x289 + x29 + x290 + x291 + x292 + x293 + x294 + x295 + x296 + x297
 + x298 + x299 + x30 + x31 <= 3
_C60: 2 x261 <= 10
_C61: 2 x34 <= 10
_C62: 2 x36 <= 10
_C63: x151 + x155 + x193 + x235 + x257 + x261 + x34 + x36 <= 3
_C64: 2 x110 <= 10
_C65: 2 x140 <= 10
_C66: 2 x154 <= 10
_C67: 3 x235 <= 10
_C68: 2 x255 <= 10
_C69: 3 x257 <= 10
_C7: x18 + x19 + x20 + x21 + x22 + x23 + x233 + x234 + x235 + x236 + x237
 + x238 + x239 + x24 + x240 + x241 + x242 + x243 + x244 + x245 + x246 + x247
 + x248 + x249 + x25 + x250 + x251 + x252 + x253 + x254 + x255 + x256 + x257
 + x258 + x259 + x26 + x260 + x261 + x262 + x263 + x264 + x265 + x266 + x267
 + x268 + x269 + x27 + x270 + x271 + x272 + x273 + x274 + x275 + x276 + x277
 + x278 + x279 + x28 + x280 + x281 + x282 + x283 + x284 + x285 + x286 + x287
 + x288 + x289 + x29 + x290 + x291 + x292 + x293 + x294 + x295 + x296 + x297
 + x298 + x299 + x30 + x31 >= 1
_C70: 3 x36 <= 10
_C71: 2 x94 <= 10
_C72: x110 + x140 + x154 + x235 + x255 + x257 + x36 + x94 <= 3
_C73: 3 x140 <= 10
_C74: 2 x156 <= 10
_C75: 2 x199 <= 10
_C76: 2 x241 <= 10
_C77: 4 x257 <= 10
_C78: 3 x261 <= 10
_C79: 4 x36 <= 10
_C8: x100 + x101 + x102 + x103 + x104 + x105 + x106 + x107 + x108 + x109
 + x110 + x111 + x112 + x113 + x114 + x115 + x116 + x117 + x118 + x119 + x120
 + x121 + x122 + x123 + x124 + x125 + x126 + x127 + x128 + x129 + x130 + x131
 + x132 + x133 + x134 + x135 + x136 + x137 + x138 + x139 + x233 + x234 + x235
 + x236 + x237 + x238 + x239 + x240 + x241 + x242 + x243 + x244 + x245 + x246
 + x247 + x248 + x249 + x250 + x251 + x252 + x86 + x87 + x88 + x89 + x90 + x91
 + x92 + x93 + x94 + x95 + x96 + x97 + x98 + x99 <= 3
_C80: 2 x86 <= 10
_C81: x140 + x156 + x199 + x241 + x257 + x261 + x36 + x86 <= 3
_C82: 3 x110 <= 10
_C83: 2 x142 <= 10
_C84: 3 x151 <= 10
_C85: 3 x199 <= 10
_C86: 2 x233 <= 10
_C87: 2 x253 <= 10
_C88: 5 x257 <= 10
_C89: 5 x36 <= 10
_C9: x100 + x101 + x102 + x103 + x104 + x105 + x106 + x107 + x108 + x109
 + x110 + x111 + x112 + x113 + x114 + x115 + x116 + x117 + x118 + x119 + x120
 + x121 + x122 + x123 + x124 + x125 + x126 + x127 + x128 + x129 + x130 + x131
 + x132 + x133 + x134 + x135 + x136 + x137 + x138 + x139 + x233 + x234 + x235
 + x236 + x237 + x238 + x239 + x240 + x241 + x242 + x243 + x244 + x245 + x246
 + x247 + x248 + x249 + x250 + x251 + x252 + x86 + x87 + x88 + x89 + x90 + x91
 + x92 + x93 + x94 + x95 + x96 + x97 + x98 + x99 >= 1
_C90: x110 + x142 + x151 + x199 + x233 + x253 + x257 + x36 <= 3
_C91: 2 x143 <= 10
_C92: 4 x151 <= 10
_C93: 4 x199 <= 10
_C94: 3 x255 <= 10
_C95: 6 x257 <= 10
_C96: 2 x269 <= 10
_C97: 3 x34 <= 10
_C98: 3 x86 <= 10
_C99: x143 + x151 + x199 + x255 + x257 + x269 + x34 + x86 <= 3
Binaries
P0
P1
P10
P11
P12
P13
P14
P15
P16
P17
P18
P19
P2
P3
P4
P5
P6
P7
P8
P9
x0
x1
x10
x100
x101
x102
x103
x104
x105
x106
x107
x108
x109
x11
x110
x111
x112
x113
x114
x115
x116
x117
x118
x119
x12
x120
x121
x122
x123
x124
x125
x126
x127
x128
x129
x13
x130
x131
x132
x133
x134
x135
x136
x137
x138
x139
x14
x140
x141
x142
x143
x144
x145
x146
x147
x148
x149
x15
x150
x151
x152
x153
x154
x155
x156
x157
x158
x159
x16
x160
x161
x162
x163
x164
x165
x166
x167
x168
x169
x17
x170
x171
x172
x173
x174
x175
x176
x177
x178
x179
x18
x180
x181
x182
x183
x184
x185
x186
x187
x188
x189
x19
x190
x191
x192
x193
x194
x195
x196
x197
x198
x199
x2
x20
x200
x201
x202
x203
x204
x205
x206
x207
x208
x209
x21
x210
x211
x212
x213
x214
x215
x216
x217
x218
x219
x22
x220
x221
x222
x223
x224
x225
x226
x227
x228
x229
x23
x230
x231
x232
x233
x234
x235
x236
x237
x238
x239
x24
x240
x241
x242
x243
x244
x245
x246
x247
x248
x249
x25
x250
x251
x252
x253
x254
x255
x256
x257
x258
x259
x26
x260
x261
x262
x263
x264
x265
x266
x267
x268
x269
x27
x270
x271
x272
x273
x274
x275
x276
x277
x278
x279
x28
x280
x281
x282
x283
x284
x285
x286
x287
x288
x289
x29
x290
x291
x292
x293
x294
x295
x296
x297
x298
x299
x3
x30
x31
x32
x33
x34
x35
x36
x37
x38
x39
x4
x40
x41
x42
x43
x44
x45
x46
x47
x48
x49
x5
x50
x51
x52
x53
x54
x55
x56
x57
x58
x59
x6
x60
x61
x62
x63
x64
x65
x66
x67
x68
x69
x7
x70
x71
x72
x73
x74
x75
x76
x77
x78
x79
x8
x80
x81
x82
x83
x84
x85
x86
x87
x88
x89
x9
x90
x91
x92
x93
x94
x95
x96
x97
x98
x99
End
